[2026-03-24T13:57:15.981Z] Pipeline "set_vm-4-t1_vm-4-t1_s005_g001" → 2026_03_24_13_57_15_set_vm-4-t1_vm-4-t1_s005_g001_max.sol
Set parameter Username
Set parameter LicenseID to value 2797659
Set parameter LogFile to value "gurobi.log"
Using license file /opt/gurobi/gurobi.lic
Academic license - for non-commercial use only - expires 2027-03-24

Gurobi Optimizer version 13.0.1 build v13.0.1rc0 (linux64 - "Ubuntu 24.04.4 LTS")
Copyright (c) 2026, Gurobi Optimization, LLC

Warning: Duplicate section found (read 'binary') - Is a variable name equal to an LP file format keyword?
Warning: Duplicate section found (read 'binary') - Is a variable name equal to an LP file format keyword?
Warning: Duplicate section found (read 'binary') - Is a variable name equal to an LP file format keyword?
Warning: Duplicate section found (read 'binary') - Is a variable name equal to an LP file format keyword?
Warning: Duplicate section found (read 'binary') - Is a variable name equal to an LP file format keyword?
Warning: Duplicate section found (read 'binary') - Is a variable name equal to an LP file format keyword?
Warning: Duplicate section found (read 'binary') - Is a variable name equal to an LP file format keyword?
Warning: Duplicate section found (read 'binary') - Is a variable name equal to an LP file format keyword?
Warning: Duplicate section found (read 'binary') - Is a variable name equal to an LP file format keyword?
Warning: Duplicate section found (read 'binary') - Is a variable name equal to an LP file format keyword?
Warning: Further warnings of this type will be omitted.
Read LP format model from file /root/bgw/data/uploads/2026_03_24_13_57_15_set_vm-4-t1_vm-4-t1_s005_g001_max.lp
Reading time = 0.01 seconds
: 13483 rows, 715 columns, 41237 nonzeros

Using Gurobi shared library /opt/gurobi1301/linux64/lib/libgurobi.so.13.0.1

CPU model: AMD EPYC-Genoa Processor, instruction set [SSE2|AVX|AVX2|AVX512]
Thread count: 16 physical cores, 16 logical processors, using up to 16 threads

Optimize a model with 13483 rows, 715 columns and 41237 nonzeros (Max)
Model fingerprint: 0xe777fc6e
Model has 10 linear objective coefficients
Variable types: 45 continuous, 670 integer (670 binary)
Coefficient statistics:
  Matrix range     [1e+00, 4e+01]
  Objective range  [1e+00, 1e+00]
  Bounds range     [1e+00, 1e+00]
  RHS range        [1e+00, 4e+01]

Found heuristic solution: objective 10.0000000
Presolve removed 362 rows and 101 columns
Presolve time: 0.04s
Presolved: 13121 rows, 614 columns, 39587 nonzeros
Variable types: 0 continuous, 614 integer (607 binary)

Root relaxation: objective 4.600000e+01, 462 iterations, 0.03 seconds (0.04 work units)

    Nodes    |    Current Node    |     Objective Bounds      |     Work
 Expl Unexpl |  Obj  Depth IntInf | Incumbent    BestBd   Gap | It/Node Time

     0     0   46.00000    0   31   10.00000   46.00000   360%     -    0s
H    0     0                      16.0000000   46.00000   188%     -    0s
H    0     0                      22.0000000   46.00000   109%     -    0s
H    0     0                      25.0000000   46.00000  84.0%     -    0s
H    0     0                      28.0000000   46.00000  64.3%     -    0s
     0     0   46.00000    0   36   28.00000   46.00000  64.3%     -    0s
     0     0   46.00000    0   36   28.00000   46.00000  64.3%     -    0s
     0     0   46.00000    0   37   28.00000   46.00000  64.3%     -    0s
     0     0   46.00000    0   18   28.00000   46.00000  64.3%     -    0s
     0     0   46.00000    0   25   28.00000   46.00000  64.3%     -    0s
     0     0   46.00000    0   25   28.00000   46.00000  64.3%     -    0s
     0     0   46.00000    0   18   28.00000   46.00000  64.3%     -    0s
     0     0   46.00000    0   24   28.00000   46.00000  64.3%     -    0s
     0     0   46.00000    0   17   28.00000   46.00000  64.3%     -    0s
     0     0   45.90909    0   27   28.00000   45.90909  64.0%     -    0s
     0     0   45.90909    0   18   28.00000   45.90909  64.0%     -    0s
     0     0   43.00000    0   26   28.00000   43.00000  53.6%     -    0s
     0     0   43.00000    0   19   28.00000   43.00000  53.6%     -    0s
     0     0   43.00000    0   31   28.00000   43.00000  53.6%     -    0s
     0     0   43.00000    0   18   28.00000   43.00000  53.6%     -    0s
     0     0   43.00000    0   18   28.00000   43.00000  53.6%     -    0s
     0     0   43.00000    0   18   28.00000   43.00000  53.6%     -    1s
     0     2   43.00000    0   18   28.00000   43.00000  53.6%     -    1s
  2316    97 infeasible   15        28.00000   36.50000  30.4%   159    5s

Cutting planes:
  Cover: 16
  Inf proof: 32
  Zero half: 1

Explored 2729 nodes (451689 simplex iterations) in 5.53 seconds (11.46 work units)
Thread count was 16 (of 16 available processors)

Solution count 5: 28 25 22 ... 10

Optimal solution found (tolerance 1.00e-04)
Best objective 2.800000000000e+01, best bound 2.800000000000e+01, gap 0.0000%

Wrote result file '/root/bgw/data/results/2026_03_24_13_57_15_set_vm-4-t1_vm-4-t1_s005_g001_max.sol'

